NAME : XML100_1175_03
DIMENSION : 101
NB_CLUSTERS : 23
CLUSTERING_ALG : DBSCAN
CLUSTERING_PARAMS : eps(56), minSamples(3)
CLUSTERS
1 0
2 2 3 10 21 46 83 97
3 5 15 69 93
4 7 9 59 86
5 1 6 17 24 31 38 43 52 53
6 41 58 63 67 73 76
7 45 61 79 90
8 27 32 49 51 71 74
9 13 40 47 50 56 64 68 72
10 28 60 70 75 78
11 19 34 36 37 39 48 84 98 99
12 11 57 66
13 16 25 33
14 55 80 92
15 30 77 94 95
16 22 35 62 91
17 14 65 85
18 8 12 87 88
19 18 29 44
20 4 20 42
21 26 100
22 54 81
23 23 82 89 96
EOF